339,295
207,331
453,332
1023,295
937,489
727,264
552,7
589,121
646,358
875,265
699,349
668,380
518,726
477,806
660,427
711,406
912,860
977,702
711,406
622,415
453,332
342,160
339,295
326,462
488,672
823,360
787,352
672,347
681,316
561,406
596,433
561,406
501,406
681,616
681,706
488,672
477,806
518,726
668,380
589,121
552,7
746,-8
1041,46
912,-48
746,-8
611,-38
951,406
937,323
823,360
622,415
596,433
